\ENCODING=ISO-8859-1
\Problem name: ilog.cplex

Minimize
 obj1: 98013 x1 + 97349 x2 + 90354 x3 + 92820 x4 + 90519 x5 + 107128 x6
       + 109693 x7 + 104583 x8 + 91378 x9 + 107043 x10 + 97519 x11 + 103939 x12
       + 91479 x13 + 105111 x14 + 106214 x15 + 103267 x16 + 109485 x17
       + 101984 x18 + 109957 x19 + 97766 x20 + 92213 x21 + 90080 x22
       + 101412 x23 + 106190 x24 + 93873 x25 + 93062 x26 + 105233 x27
       + 106955 x28 + 107940 x29 + 103131 x30 + 92328 x31 + 99469 x32
       + 105912 x33 + 94792 x34 + 102096 x35 + 97128 x36 + 108327 x37
       + 90719 x38 + 103838 x39 + 100630 x40 + 95148 x41 + 107795 x42
       + 93013 x43 + 108078 x44 + 94998 x45 + 99621 x46 + 103262 x47
       + 91824 x48 + 95692 x49 + 95479 x50 + 95204 x51 + 94802 x52 + 93876 x53
       + 92009 x54 + 94376 x55 + 102436 x56 + 92882 x57 + 94089 x58
       + 104939 x59 + 98906 x60 + 94348 x61 + 100410 x62 + 102580 x63
       + 106128 x64 + 102512 x65 + 98512 x66 + 94132 x67 + 106617 x68
       + 107837 x69 + 97595 x70 + 95754 x71 + 96711 x72 + 100858 x73
       + 99386 x74 + 105813 x75 + 103985 x76 + 91704 x77 + 92558 x78
       + 105141 x79 + 104463 x80 + 99488 x81 + 98225 x82 + 101740 x83
       + 106642 x84 + 105431 x85 + 103197 x86 + 97046 x87 + 101407 x88
       + 98940 x89 + 97606 x90 + 106468 x91 + 109587 x92 + 106820 x93
       + 103949 x94 + 98236 x95 + 92186 x96 + 102354 x97 + 105754 x98
       + 101442 x99 + 102289 x100 + 92147 x101 + 105119 x102 + 106017 x103
       + 101064 x104 + 104157 x105 + 101075 x106 + 94841 x107 + 92305 x108
       + 90232 x109 + 106238 x110 + 90069 x111 + 107684 x112 + 100488 x113
       + 101716 x114 + 101187 x115 + 96559 x116 + 99237 x117 + 92124 x118
       + 98652 x119 + 107476 x120 + 103934 x121 + 97073 x122 + 93763 x123
       + 106328 x124 + 101026 x125 + 108510 x126 + 98710 x127 + 94140 x128
       + 91603 x129 + 103043 x130 + 103107 x131 + 100579 x132 + 99269 x133
       + 101196 x134 + 90718 x135 + 92398 x136 + 92842 x137 + 93986 x138
       + 98040 x139 + 94816 x140 + 97301 x141 + 91331 x142 + 105053 x143
       + 98223 x144 + 107801 x145 + 106470 x146 + 107663 x147 + 92607 x148
       + 103656 x149 + 95923 x150 + 105482 x151 + 105027 x152 + 98644 x153
       + 92874 x154 + 109292 x155 + 108782 x156 + 91936 x157 + 105877 x158
       + 91298 x159 + 103764 x160 + 102812 x161 + 94142 x162 + 106165 x163
       + 93784 x164 + 98540 x165 + 97723 x166 + 90227 x167 + 104041 x168
       + 109699 x169 + 105367 x170 + 92117 x171 + 99556 x172 + 109038 x173
       + 104527 x174 + 97423 x175 + 109138 x176 + 93016 x177 + 95242 x178
       + 92056 x179 + 95666 x180 + 101753 x181 + 91365 x182 + 104971 x183
       + 98999 x184 + 99367 x185 + 100889 x186 + 92460 x187 + 93889 x188
       + 98556 x189 + 106080 x190 + 93453 x191 + 92070 x192 + 90837 x193
       + 93658 x194 + 98076 x195 + 94999 x196 + 96964 x197 + 95437 x198
       + 90199 x199 + 91759 x200 + 95228 x201 + 94604 x202 + 92679 x203
       + 102409 x204 + 98846 x205 + 102668 x206 + 94627 x207 + 107213 x208
       + 96209 x209 + 107984 x210 + 101557 x211 + 98378 x212 + 96165 x213
       + 95249 x214 + 109616 x215 + 93211 x216 + 107234 x217 + 92548 x218
       + 106916 x219 + 94999 x220 + 96896 x221 + 95476 x222 + 105241 x223
       + 105192 x224 + 93656 x225 + 95947 x226 + 106907 x227 + 94768 x228
       + 92788 x229 + 91649 x230 + 106911 x231 + 94743 x232 + 90267 x233
       + 101489 x234 + 106920 x235 + 100478 x236 + 103642 x237 + 97431 x238
       + 94705 x239 + 104791 x240 + 103467 x241 + 103718 x242 + 100295 x243
       + 100818 x244 + 94383 x245 + 90791 x246 + 98444 x247 + 107163 x248
       + 91074 x249 + 247869 x250 + 20883 x251 + 18491 x252 + 19704 x253
       + 21785 x254 + 21351 x255 + 20866 x256 + 19689 x257 + 21059 x258
       + 19557 x259 + 20538 x260 + 20913 x261 + 20648 x262 + 20474 x263
       + 21228 x264 + 18141 x265 + 21689 x266 + 20910 x267 + 21743 x268
       + 18760 x269 + 18010 x270 + 20036 x271 + 19447 x272 + 19913 x273
       + 19966 x274 + 19844 x275 + 21340 x276 + 20612 x277 + 19342 x278
       + 20338 x279 + 20825 x280 + 20080 x281 + 20418 x282 + 19459 x283
       + 21902 x284 + 19925 x285 + 21654 x286 + 20336 x287 + 20546 x288
       + 19518 x289 + 18184 x290 + 20337 x291 + 21465 x292 + 19080 x293
       + 19377 x294 + 19776 x295 + 21176 x296 + 19453 x297 + 18216 x298
       + 18783 x299 + 12213 x300
Subject To
 c1:   - x5 + x14 + x15 - x22 + x28 + x37 + x45  = 0
 c2:   - x55 + x64 + x65 - x72 + x78 + x87 + x95  = 1
 c3:   - x105 + x114 + x115 - x122 + x128 + x137 + x145  = 0
 c4:   - x155 + x164 + x165 - x172 + x178 + x187 + x195  = 0
 c5:   - x205 + x214 + x215 - x222 + x228 + x237 + x245  = 1
 c6:   x3 + x12 + x20 - x24 + x25 - x26 - x34 - x45 + x50  = 0
 c7:   x53 + x62 + x70 - x74 + x75 - x76 - x84 - x95 + x100  = -1
 c8:   x103 + x112 + x120 - x124 + x125 - x126 - x134 - x145 + x150  = 0
 c9:   x153 + x162 + x170 - x174 + x175 - x176 - x184 - x195 + x200  = 0
 c10:  x203 + x212 + x220 - x224 + x225 - x226 - x234 - x245 + x250  = 0
 c11:  - x4 + x7 - x9 + x30 + x34 - x35  = 0
 c12:  - x54 + x57 - x59 + x80 + x84 - x85  = 0
 c13:  - x104 + x107 - x109 + x130 + x134 - x135  = 0
 c14:  - x154 + x157 - x159 + x180 + x184 - x185  = 0
 c15:  - x204 + x207 - x209 + x230 + x234 - x235  = 0
 c16:  x1 + x4 + x6 + x10 + x18 - x29 - x30 - x41 - x43  = -1
 c17:  x51 + x54 + x56 + x60 + x68 - x79 - x80 - x91 - x93  = 0
 c18:  x101 + x104 + x106 + x110 + x118 - x129 - x130 - x141 - x143  = 0
 c19:  x151 + x154 + x156 + x160 + x168 - x179 - x180 - x191 - x193  = 0
 c20:  x201 + x204 + x206 + x210 + x218 - x229 - x230 - x241 - x243  = 0
 c21:  - x8 - x10 + x16 + x24 + x31 + x33 + x35 - x39 - x44 - x49  = 0
 c22:  - x58 - x60 + x66 + x74 + x81 + x83 + x85 - x89 - x94 - x99  = 0
 c23:  - x108 - x110 + x116 + x124 + x131 + x133 + x135 - x139 - x144 - x149
        = 1
 c24:  - x158 - x160 + x166 + x174 + x181 + x183 + x185 - x189 - x194 - x199
        = 0
 c25:  - x208 - x210 + x216 + x224 + x231 + x233 + x235 - x239 - x244 - x249
        = 0
 c26:  - x7 - x16 + x32 + x39 + x43  = 0
 c27:  - x57 - x66 + x82 + x89 + x93  = 0
 c28:  - x107 - x116 + x132 + x139 + x143  = -1
 c29:  - x157 - x166 + x182 + x189 + x193  = 1
 c30:  - x207 - x216 + x232 + x239 + x243  = 0
 c31:  - x2 - x17 - x20 + x23 - x40 + x48  = 0
 c32:  - x52 - x67 - x70 + x73 - x90 + x98  = 0
 c33:  - x102 - x117 - x120 + x123 - x140 + x148  = 0
 c34:  - x152 - x167 - x170 + x173 - x190 + x198  = 0
 c35:  - x202 - x217 - x220 + x223 - x240 + x248  = 0
 c36:  - x19 + x36 - x37 - x42 - x46 + x47 - x50  = 0
 c37:  - x69 + x86 - x87 - x92 - x96 + x97 - x100  = 0
 c38:  - x119 + x136 - x137 - x142 - x146 + x147 - x150  = 0
 c39:  - x169 + x186 - x187 - x192 - x196 + x197 - x200  = 0
 c40:  - x219 + x236 - x237 - x242 - x246 + x247 - x250  = 0
 c41:  x5 - x6 - x12 - x15 + x17 - x21 - x38 + x42  = 0
 c42:  x55 - x56 - x62 - x65 + x67 - x71 - x88 + x92  = 0
 c43:  x105 - x106 - x112 - x115 + x117 - x121 - x138 + x142  = 0
 c44:  x155 - x156 - x162 - x165 + x167 - x171 - x188 + x192  = -1
 c45:  x205 - x206 - x212 - x215 + x217 - x221 - x238 + x242  = 0
 c46:  - x14 + x22 + x26 + x29 + x46 - x48  = 0
 c47:  - x64 + x72 + x76 + x79 + x96 - x98  = 0
 c48:  - x114 + x122 + x126 + x129 + x146 - x148  = 0
 c49:  - x164 + x172 + x176 + x179 + x196 - x198  = 0
 c50:  - x214 + x222 + x226 + x229 + x246 - x248  = 0
 c51:  x9 - x23 + x27 + x40  = 0
 c52:  x59 - x73 + x77 + x90  = 0
 c53:  x109 - x123 + x127 + x140  = 0
 c54:  x159 - x173 + x177 + x190  = 0
 c55:  x209 - x223 + x227 + x240  = 0
 c56:  x13 + x19 - x28 - x31 + x38  = 0
 c57:  x63 + x69 - x78 - x81 + x88  = 0
 c58:  x113 + x119 - x128 - x131 + x138  = 0
 c59:  x163 + x169 - x178 - x181 + x188  = 0
 c60:  x213 + x219 - x228 - x231 + x238  = 0
 c61:  - x1 + x2 - x13 - x32 - x47 + x49  = 0
 c62:  - x51 + x52 - x63 - x82 - x97 + x99  = 0
 c63:  - x101 + x102 - x113 - x132 - x147 + x149  = 0
 c64:  - x151 + x152 - x163 - x182 - x197 + x199  = 0
 c65:  - x201 + x202 - x213 - x232 - x247 + x249  = 0
 c66:  - x3 + x8 + x11 + x21 - x33 - x36  = 1
 c67:  - x53 + x58 + x61 + x71 - x83 - x86  = 0
 c68:  - x103 + x108 + x111 + x121 - x133 - x136  = 0
 c69:  - x153 + x158 + x161 + x171 - x183 - x186  = 0
 c70:  - x203 + x208 + x211 + x221 - x233 - x236  = 0
 c71:  - x11 - x18 - x25 - x27 + x41 + x44  = 0
 c72:  - x61 - x68 - x75 - x77 + x91 + x94  = 0
 c73:  - x111 - x118 - x125 - x127 + x141 + x144  = 0
 c74:  - x161 - x168 - x175 - x177 + x191 + x194  = 0
 c75:  - x211 - x218 - x225 - x227 + x241 + x244  = -1
 c76:  4 x1 + 4 x51 + 4 x101 + 4 x151 + 4 x201 - 2 x251 <= 0
 c77:  4 x2 + 4 x52 + 4 x102 + 4 x152 + 4 x202 - 2 x252 <= 0
 c78:  4 x3 + 4 x53 + 4 x103 + 4 x153 + 4 x203 - 2 x253 <= 0
 c79:  4 x4 + 4 x54 + 4 x104 + 4 x154 + 4 x204 - 2 x254 <= 0
 c80:  4 x5 + 4 x55 + 4 x105 + 4 x155 + 4 x205 - 2 x255 <= 0
 c81:  4 x6 + 4 x56 + 4 x106 + 4 x156 + 4 x206 - 2 x256 <= 0
 c82:  4 x7 + 4 x57 + 4 x107 + 4 x157 + 4 x207 - 2 x257 <= 0
 c83:  4 x8 + 4 x58 + 4 x108 + 4 x158 + 4 x208 - 2 x258 <= 0
 c84:  4 x9 + 4 x59 + 4 x109 + 4 x159 + 4 x209 - 2 x259 <= 0
 c85:  4 x10 + 4 x60 + 4 x110 + 4 x160 + 4 x210 - 2 x260 <= 0
 c86:  4 x11 + 4 x61 + 4 x111 + 4 x161 + 4 x211 - 2 x261 <= 0
 c87:  4 x12 + 4 x62 + 4 x112 + 4 x162 + 4 x212 - 2 x262 <= 0
 c88:  4 x13 + 4 x63 + 4 x113 + 4 x163 + 4 x213 - 2 x263 <= 0
 c89:  4 x14 + 4 x64 + 4 x114 + 4 x164 + 4 x214 - 2 x264 <= 0
 c90:  4 x15 + 4 x65 + 4 x115 + 4 x165 + 4 x215 - 2 x265 <= 0
 c91:  4 x16 + 4 x66 + 4 x116 + 4 x166 + 4 x216 - 2 x266 <= 0
 c92:  4 x17 + 4 x67 + 4 x117 + 4 x167 + 4 x217 - 2 x267 <= 0
 c93:  4 x18 + 4 x68 + 4 x118 + 4 x168 + 4 x218 - 2 x268 <= 0
 c94:  4 x19 + 4 x69 + 4 x119 + 4 x169 + 4 x219 - 2 x269 <= 0
 c95:  4 x20 + 4 x70 + 4 x120 + 4 x170 + 4 x220 - 2 x270 <= 0
 c96:  4 x21 + 4 x71 + 4 x121 + 4 x171 + 4 x221 - 2 x271 <= 0
 c97:  4 x22 + 4 x72 + 4 x122 + 4 x172 + 4 x222 - 2 x272 <= 0
 c98:  4 x23 + 4 x73 + 4 x123 + 4 x173 + 4 x223 - 2 x273 <= 0
 c99:  4 x24 + 4 x74 + 4 x124 + 4 x174 + 4 x224 - 2 x274 <= 0
 c100: 4 x25 + 4 x75 + 4 x125 + 4 x175 + 4 x225 - 2 x275 <= 0
 c101: 4 x26 + 4 x76 + 4 x126 + 4 x176 + 4 x226 - 2 x276 <= 0
 c102: 4 x27 + 4 x77 + 4 x127 + 4 x177 + 4 x227 - 2 x277 <= 0
 c103: 4 x28 + 4 x78 + 4 x128 + 4 x178 + 4 x228 - 2 x278 <= 0
 c104: 4 x29 + 4 x79 + 4 x129 + 4 x179 + 4 x229 - 2 x279 <= 0
 c105: 4 x30 + 4 x80 + 4 x130 + 4 x180 + 4 x230 - 2 x280 <= 0
 c106: 4 x31 + 4 x81 + 4 x131 + 4 x181 + 4 x231 - 2 x281 <= 0
 c107: 4 x32 + 4 x82 + 4 x132 + 4 x182 + 4 x232 - 2 x282 <= 0
 c108: 4 x33 + 4 x83 + 4 x133 + 4 x183 + 4 x233 - 2 x283 <= 0
 c109: 4 x34 + 4 x84 + 4 x134 + 4 x184 + 4 x234 - 2 x284 <= 0
 c110: 4 x35 + 4 x85 + 4 x135 + 4 x185 + 4 x235 - 2 x285 <= 0
 c111: 4 x36 + 4 x86 + 4 x136 + 4 x186 + 4 x236 - 2 x286 <= 0
 c112: 4 x37 + 4 x87 + 4 x137 + 4 x187 + 4 x237 - 2 x287 <= 0
 c113: 4 x38 + 4 x88 + 4 x138 + 4 x188 + 4 x238 - 2 x288 <= 0
 c114: 4 x39 + 4 x89 + 4 x139 + 4 x189 + 4 x239 - 2 x289 <= 0
 c115: 4 x40 + 4 x90 + 4 x140 + 4 x190 + 4 x240 - 2 x290 <= 0
 c116: 4 x41 + 4 x91 + 4 x141 + 4 x191 + 4 x241 - 2 x291 <= 0
 c117: 4 x42 + 4 x92 + 4 x142 + 4 x192 + 4 x242 - 2 x292 <= 0
 c118: 4 x43 + 4 x93 + 4 x143 + 4 x193 + 4 x243 - 2 x293 <= 0
 c119: 4 x44 + 4 x94 + 4 x144 + 4 x194 + 4 x244 - 2 x294 <= 0
 c120: 4 x45 + 4 x95 + 4 x145 + 4 x195 + 4 x245 - 2 x295 <= 0
 c121: 4 x46 + 4 x96 + 4 x146 + 4 x196 + 4 x246 - 2 x296 <= 0
 c122: 4 x47 + 4 x97 + 4 x147 + 4 x197 + 4 x247 - 2 x297 <= 0
 c123: 4 x48 + 4 x98 + 4 x148 + 4 x198 + 4 x248 - 2 x298 <= 0
 c124: 4 x49 + 4 x99 + 4 x149 + 4 x199 + 4 x249 - 2 x299 <= 0
 c125: 4 x50 + 4 x100 + 4 x150 + 4 x200 + 4 x250 - 2 x300 <= 0
Bounds
 0 <= x1 <= 1
 0 <= x2 <= 1
 0 <= x3 <= 1
 0 <= x4 <= 1
 0 <= x5 <= 1
 0 <= x6 <= 1
 0 <= x7 <= 1
 0 <= x8 <= 1
 0 <= x9 <= 1
 0 <= x10 <= 1
 0 <= x11 <= 1
 0 <= x12 <= 1
 0 <= x13 <= 1
 0 <= x14 <= 1
 0 <= x15 <= 1
 0 <= x16 <= 1
 0 <= x17 <= 1
 0 <= x18 <= 1
 0 <= x19 <= 1
 0 <= x20 <= 1
 0 <= x21 <= 1
 0 <= x22 <= 1
 0 <= x23 <= 1
 0 <= x24 <= 1
 0 <= x25 <= 1
 0 <= x26 <= 1
 0 <= x27 <= 1
 0 <= x28 <= 1
 0 <= x29 <= 1
 0 <= x30 <= 1
 0 <= x31 <= 1
 0 <= x32 <= 1
 0 <= x33 <= 1
 0 <= x34 <= 1
 0 <= x35 <= 1
 0 <= x36 <= 1
 0 <= x37 <= 1
 0 <= x38 <= 1
 0 <= x39 <= 1
 0 <= x40 <= 1
 0 <= x41 <= 1
 0 <= x42 <= 1
 0 <= x43 <= 1
 0 <= x44 <= 1
 0 <= x45 <= 1
 0 <= x46 <= 1
 0 <= x47 <= 1
 0 <= x48 <= 1
 0 <= x49 <= 1
 0 <= x50 <= 1
 0 <= x51 <= 1
 0 <= x52 <= 1
 0 <= x53 <= 1
 0 <= x54 <= 1
 0 <= x55 <= 1
 0 <= x56 <= 1
 0 <= x57 <= 1
 0 <= x58 <= 1
 0 <= x59 <= 1
 0 <= x60 <= 1
 0 <= x61 <= 1
 0 <= x62 <= 1
 0 <= x63 <= 1
 0 <= x64 <= 1
 0 <= x65 <= 1
 0 <= x66 <= 1
 0 <= x67 <= 1
 0 <= x68 <= 1
 0 <= x69 <= 1
 0 <= x70 <= 1
 0 <= x71 <= 1
 0 <= x72 <= 1
 0 <= x73 <= 1
 0 <= x74 <= 1
 0 <= x75 <= 1
 0 <= x76 <= 1
 0 <= x77 <= 1
 0 <= x78 <= 1
 0 <= x79 <= 1
 0 <= x80 <= 1
 0 <= x81 <= 1
 0 <= x82 <= 1
 0 <= x83 <= 1
 0 <= x84 <= 1
 0 <= x85 <= 1
 0 <= x86 <= 1
 0 <= x87 <= 1
 0 <= x88 <= 1
 0 <= x89 <= 1
 0 <= x90 <= 1
 0 <= x91 <= 1
 0 <= x92 <= 1
 0 <= x93 <= 1
 0 <= x94 <= 1
 0 <= x95 <= 1
 0 <= x96 <= 1
 0 <= x97 <= 1
 0 <= x98 <= 1
 0 <= x99 <= 1
 0 <= x100 <= 1
 0 <= x101 <= 1
 0 <= x102 <= 1
 0 <= x103 <= 1
 0 <= x104 <= 1
 0 <= x105 <= 1
 0 <= x106 <= 1
 0 <= x107 <= 1
 0 <= x108 <= 1
 0 <= x109 <= 1
 0 <= x110 <= 1
 0 <= x111 <= 1
 0 <= x112 <= 1
 0 <= x113 <= 1
 0 <= x114 <= 1
 0 <= x115 <= 1
 0 <= x116 <= 1
 0 <= x117 <= 1
 0 <= x118 <= 1
 0 <= x119 <= 1
 0 <= x120 <= 1
 0 <= x121 <= 1
 0 <= x122 <= 1
 0 <= x123 <= 1
 0 <= x124 <= 1
 0 <= x125 <= 1
 0 <= x126 <= 1
 0 <= x127 <= 1
 0 <= x128 <= 1
 0 <= x129 <= 1
 0 <= x130 <= 1
 0 <= x131 <= 1
 0 <= x132 <= 1
 0 <= x133 <= 1
 0 <= x134 <= 1
 0 <= x135 <= 1
 0 <= x136 <= 1
 0 <= x137 <= 1
 0 <= x138 <= 1
 0 <= x139 <= 1
 0 <= x140 <= 1
 0 <= x141 <= 1
 0 <= x142 <= 1
 0 <= x143 <= 1
 0 <= x144 <= 1
 0 <= x145 <= 1
 0 <= x146 <= 1
 0 <= x147 <= 1
 0 <= x148 <= 1
 0 <= x149 <= 1
 0 <= x150 <= 1
 0 <= x151 <= 1
 0 <= x152 <= 1
 0 <= x153 <= 1
 0 <= x154 <= 1
 0 <= x155 <= 1
 0 <= x156 <= 1
 0 <= x157 <= 1
 0 <= x158 <= 1
 0 <= x159 <= 1
 0 <= x160 <= 1
 0 <= x161 <= 1
 0 <= x162 <= 1
 0 <= x163 <= 1
 0 <= x164 <= 1
 0 <= x165 <= 1
 0 <= x166 <= 1
 0 <= x167 <= 1
 0 <= x168 <= 1
 0 <= x169 <= 1
 0 <= x170 <= 1
 0 <= x171 <= 1
 0 <= x172 <= 1
 0 <= x173 <= 1
 0 <= x174 <= 1
 0 <= x175 <= 1
 0 <= x176 <= 1
 0 <= x177 <= 1
 0 <= x178 <= 1
 0 <= x179 <= 1
 0 <= x180 <= 1
 0 <= x181 <= 1
 0 <= x182 <= 1
 0 <= x183 <= 1
 0 <= x184 <= 1
 0 <= x185 <= 1
 0 <= x186 <= 1
 0 <= x187 <= 1
 0 <= x188 <= 1
 0 <= x189 <= 1
 0 <= x190 <= 1
 0 <= x191 <= 1
 0 <= x192 <= 1
 0 <= x193 <= 1
 0 <= x194 <= 1
 0 <= x195 <= 1
 0 <= x196 <= 1
 0 <= x197 <= 1
 0 <= x198 <= 1
 0 <= x199 <= 1
 0 <= x200 <= 1
 0 <= x201 <= 1
 0 <= x202 <= 1
 0 <= x203 <= 1
 0 <= x204 <= 1
 0 <= x205 <= 1
 0 <= x206 <= 1
 0 <= x207 <= 1
 0 <= x208 <= 1
 0 <= x209 <= 1
 0 <= x210 <= 1
 0 <= x211 <= 1
 0 <= x212 <= 1
 0 <= x213 <= 1
 0 <= x214 <= 1
 0 <= x215 <= 1
 0 <= x216 <= 1
 0 <= x217 <= 1
 0 <= x218 <= 1
 0 <= x219 <= 1
 0 <= x220 <= 1
 0 <= x221 <= 1
 0 <= x222 <= 1
 0 <= x223 <= 1
 0 <= x224 <= 1
 0 <= x225 <= 1
 0 <= x226 <= 1
 0 <= x227 <= 1
 0 <= x228 <= 1
 0 <= x229 <= 1
 0 <= x230 <= 1
 0 <= x231 <= 1
 0 <= x232 <= 1
 0 <= x233 <= 1
 0 <= x234 <= 1
 0 <= x235 <= 1
 0 <= x236 <= 1
 0 <= x237 <= 1
 0 <= x238 <= 1
 0 <= x239 <= 1
 0 <= x240 <= 1
 0 <= x241 <= 1
 0 <= x242 <= 1
 0 <= x243 <= 1
 0 <= x244 <= 1
 0 <= x245 <= 1
 0 <= x246 <= 1
 0 <= x247 <= 1
 0 <= x248 <= 1
 0 <= x249 <= 1
 0 <= x250 <= 1
 0 <= x251 <= 1
 0 <= x252 <= 1
 0 <= x253 <= 1
 0 <= x254 <= 1
 0 <= x255 <= 1
 0 <= x256 <= 1
 0 <= x257 <= 1
 0 <= x258 <= 1
 0 <= x259 <= 1
 0 <= x260 <= 1
 0 <= x261 <= 1
 0 <= x262 <= 1
 0 <= x263 <= 1
 0 <= x264 <= 1
 0 <= x265 <= 1
 0 <= x266 <= 1
 0 <= x267 <= 1
 0 <= x268 <= 1
 0 <= x269 <= 1
 0 <= x270 <= 1
 0 <= x271 <= 1
 0 <= x272 <= 1
 0 <= x273 <= 1
 0 <= x274 <= 1
 0 <= x275 <= 1
 0 <= x276 <= 1
 0 <= x277 <= 1
 0 <= x278 <= 1
 0 <= x279 <= 1
 0 <= x280 <= 1
 0 <= x281 <= 1
 0 <= x282 <= 1
 0 <= x283 <= 1
 0 <= x284 <= 1
 0 <= x285 <= 1
 0 <= x286 <= 1
 0 <= x287 <= 1
 0 <= x288 <= 1
 0 <= x289 <= 1
 0 <= x290 <= 1
 0 <= x291 <= 1
 0 <= x292 <= 1
 0 <= x293 <= 1
 0 <= x294 <= 1
 0 <= x295 <= 1
 0 <= x296 <= 1
 0 <= x297 <= 1
 0 <= x298 <= 1
 0 <= x299 <= 1
 0 <= x300 <= 1
Binaries
 x251  x252  x253  x254  x255  x256  x257  x258  x259  x260  x261  x262  x263 
 x264  x265  x266  x267  x268  x269  x270  x271  x272  x273  x274  x275  x276 
 x277  x278  x279  x280  x281  x282  x283  x284  x285  x286  x287  x288  x289 
 x290  x291  x292  x293  x294  x295  x296  x297  x298  x299  x300 
End
